/*********************************************
 * OPL 22.1.1.0 Data
 * Author: duongphuonggiang
 * Creation Date: Mar 9, 2024 at 4:11:03 PM
 *********************************************/

N=3;
M=4;
 
f = [50, 60, 70];

cost = [[10 12 11],
 [20 22 21],
 [15 18 17],
 [25 28 27]];
